% demand
num_movements = 30;
loading_factor = [900, 1600, 1200, 800, 1450, 1650, 1950, 1400, 1800, 1450, 1100, 2000, 1600, 850, 1650, 1950, 1850, 1350, 1050, 950, 900, 1500, 1550, 1500, 1350, 1450, 1850, 1800, 800, 1750];
pickup_time = [0, 0, 0, 0, 0, 0, 0, 0, 1, 1, 1, 2, 2, 2, 4, 5, 5, 5, 5, 5, 5, 5, 7, 7, 7, 7, 7, 7, 10, 10];
delivery_time = [1, 2, 1, 1, 6, 5, 5, 1, 2, 4, 2, 5, 3, 5, 5, 6, 6, 6, 6, 6, 6, 13, 13, 13, 10, 13, 10, 13, 13, 13];

% transporter definition
total_capacity = 11000;
num_decks = 4;
capacity = [3000, 3000, 1000, 4000];

% ways out of decks
num_ways_out = 2;
paths_out = array3d(decks, ways_out, decks, [
% ways out of deck d1
2, 4, 0, 0, 3, 4, 0, 0, 

% ways out of deck d2
4, 0, 0, 0, 0, 0, 0, 0,	

% ways out of deck d3
4, 0, 0, 0, 0, 0, 0, 0,	

% ways out of deck d4
0, 0, 0, 0,	0, 0, 0, 0,	

]);

